Minimize
	value: tt

Subject to
tt + 1024 s_1_1 > 0.0
tt - t_1_1 - 1031.951135 s_1_1 + 7.951135 s_1_8 > -1005.459922
tt + 1024 s_2_1 > 0.0
tt - t_2_1 - 1032.500052 s_2_1 + 8.500052 s_2_8 > -1008.354736
tt + 1024 s_1_2 > 0.0
tt - t_1_2 - 1027.975568 s_1_2 + 3.975568 s_1_7 > -1005.378336
tt + 1024 s_2_2 > 0.0
tt - t_2_2 - 1028.250026 s_2_2 + 4.250026 s_2_7 > -1009.948881
tt + 1024 s_1_3 > 0.0
tt - t_1_3 - 1035.926703 s_1_3 + 11.926703 s_1_8 > -1022.272505
tt + 1024 s_2_3 > 0.0
tt - t_2_3 - 1036.750079 s_2_3 + 12.750079 s_2_8 > -1021.383422
tt + 1024 s_1_4 > 0.0
tt - t_1_4 - 1027.975568 s_1_4 + 3.975568 s_1_7 > -1021.176143
tt + 1024 s_2_4 > 0.0
tt - t_2_4 - 1028.250026 s_2_4 + 4.250026 s_2_7 > -1019.976803
tt + 1024 s_1_5 > 0.0
tt - t_1_5 - 1029.963351 s_1_5 + 5.963351 s_1_8 > -1015.183422
tt + 1024 s_2_5 > 0.0
tt - t_2_5 - 1030.375039 s_2_5 + 6.375039 s_2_8 > -1017.183561
tt + 1024 s_1_6 > 0.0
tt - t_1_6 - 1095.560215 s_1_6 + 71.560215 s_1_3 > -1022.768750
tt + 1024 s_2_6 > 0.0
tt - t_2_6 - 1100.500472 s_2_6 + 76.500472 s_2_3 > -1021.340300
tt + 1024 s_1_7 > 0.0
tt - t_1_7 - 1024.000000 s_1_7 > -997.923764
tt + 1024 s_2_7 > 0.0
tt - t_2_7 - 1024.000000 s_2_7 > -1012.478389
tt + 1024 s_1_8 > 0.0
tt - t_1_8 - 1024.000000 s_1_8 > -998.218889
tt + 1024 s_2_8 > 0.0
tt - t_2_8 - 1024.000000 s_2_8 > -1012.974700
s_1_1 + s_2_1  = 1
s_1_2 + s_2_2  = 1
s_1_3 + s_2_3  = 1
s_1_4 + s_2_4  = 1
s_1_5 + s_2_5  = 1
s_1_6 + s_2_6  = 1
s_1_7 + s_2_7  = 1
s_1_8 + s_2_8  = 1
s_1_1 + s_1_2 + 1024 r_1_1_2 >= 2
- s_1_1 - s_1_2 - 1024 r_1_1_2 >= -1025
t_1_1 - t_1_2 - 1024.000000 u_1_1_2 - 3.975568 s_1_2 + 3.975568 s_1_7 + 2048.000000 r_1_1_2 > -1005.378336
s_2_1 + s_2_2 + 1024 r_2_1_2 >= 2
- s_2_1 - s_2_2 - 1024 r_2_1_2 >= -1025
t_2_1 - t_2_2 - 1024.000000 u_2_1_2 - 4.250026 s_2_2 + 4.250026 s_2_7 + 2048.000000 r_2_1_2 > -1009.948881
s_1_1 + s_1_3 + 1024 r_1_1_3 >= 2
- s_1_1 - s_1_3 - 1024 r_1_1_3 >= -1025
t_1_1 - t_1_3 - 1024.000000 u_1_1_3 - 5.963351 s_1_3 + 5.963351 s_1_8 + 2048.000000 r_1_1_3 > -1022.272505
s_2_1 + s_2_3 + 1024 r_2_1_3 >= 2
- s_2_1 - s_2_3 - 1024 r_2_1_3 >= -1025
t_2_1 - t_2_3 - 1024.000000 u_2_1_3 - 6.375039 s_2_3 + 6.375039 s_2_8 + 2048.000000 r_2_1_3 > -1021.383422
s_1_1 + s_1_4 + 1024 r_1_1_4 >= 2
- s_1_1 - s_1_4 - 1024 r_1_1_4 >= -1025
t_1_1 - t_1_4 - 1024.000000 u_1_1_4 - 3.975568 s_1_4 + 3.975568 s_1_7 + 2048.000000 r_1_1_4 > -1021.176143
s_2_1 + s_2_4 + 1024 r_2_1_4 >= 2
- s_2_1 - s_2_4 - 1024 r_2_1_4 >= -1025
t_2_1 - t_2_4 - 1024.000000 u_2_1_4 - 4.250026 s_2_4 + 4.250026 s_2_7 + 2048.000000 r_2_1_4 > -1019.976803
s_1_1 + s_1_5 + 1024 r_1_1_5 >= 2
- s_1_1 - s_1_5 - 1024 r_1_1_5 >= -1025
t_1_1 - t_1_5 - 1024.000000 u_1_1_5 - 5.963351 s_1_5 + 5.963351 s_1_8 + 2048.000000 r_1_1_5 > -1015.183422
s_2_1 + s_2_5 + 1024 r_2_1_5 >= 2
- s_2_1 - s_2_5 - 1024 r_2_1_5 >= -1025
t_2_1 - t_2_5 - 1024.000000 u_2_1_5 - 6.375039 s_2_5 + 6.375039 s_2_8 + 2048.000000 r_2_1_5 > -1017.183561
t_1_6 - t_1_1 - 22.515645 s_1_1 + 3.975568 s_1_8 > 0.0
t_1_6 - t_2_1 - 19.895290 s_2_1 + 4.250026 s_2_8 > 0.0
t_2_6 - t_1_1 - 22.515645 s_1_1 + 3.975568 s_1_8 > 0.0
t_2_6 - t_2_1 - 19.895290 s_2_1 + 4.250026 s_2_8 > 0.0
t_1_1 - t_1_7 - 1024.000000 s_1_7 > -997.923764
t_1_1 - t_2_7 - 1024.000000 s_2_7 > -1012.478389
t_2_1 - t_1_7 - 1024.000000 s_1_7 > -997.923764
t_2_1 - t_2_7 - 1024.000000 s_2_7 > -1012.478389
t_1_1 - t_1_8 - 1024.000000 s_1_8 > -998.218889
t_1_1 - t_2_8 - 1024.000000 s_2_8 > -1012.974700
t_2_1 - t_1_8 - 1024.000000 s_1_8 > -998.218889
t_2_1 - t_2_8 - 1024.000000 s_2_8 > -1012.974700
s_1_2 + s_1_1 + 1024 r_1_1_2 >= 2
- s_1_2 - s_1_1 - 1024 r_1_1_2 >= -1025
t_1_2 - t_1_1 + 1024.000000 u_1_1_2 - 3.975568 s_1_1 + 3.975568 s_1_8 + 2048.000000 r_1_1_2 > 18.540078
s_2_2 + s_2_1 + 1024 r_2_1_2 >= 2
- s_2_2 - s_2_1 - 1024 r_2_1_2 >= -1025
t_2_2 - t_2_1 + 1024.000000 u_2_1_2 - 4.250026 s_2_1 + 4.250026 s_2_8 + 2048.000000 r_2_1_2 > 15.645264
s_1_2 + s_1_3 + 1024 r_1_2_3 >= 2
- s_1_2 - s_1_3 - 1024 r_1_2_3 >= -1025
t_1_2 - t_1_3 - 1024.000000 u_1_2_3 - 5.963351 s_1_3 + 5.963351 s_1_8 + 2048.000000 r_1_2_3 > -1022.272505
s_2_2 + s_2_3 + 1024 r_2_2_3 >= 2
- s_2_2 - s_2_3 - 1024 r_2_2_3 >= -1025
t_2_2 - t_2_3 - 1024.000000 u_2_2_3 - 6.375039 s_2_3 + 6.375039 s_2_8 + 2048.000000 r_2_2_3 > -1021.383422
s_1_2 + s_1_4 + 1024 r_1_2_4 >= 2
- s_1_2 - s_1_4 - 1024 r_1_2_4 >= -1025
t_1_2 - t_1_4 - 1024.000000 u_1_2_4 - 3.975568 s_1_4 + 3.975568 s_1_7 + 2048.000000 r_1_2_4 > -1021.176143
s_2_2 + s_2_4 + 1024 r_2_2_4 >= 2
- s_2_2 - s_2_4 - 1024 r_2_2_4 >= -1025
t_2_2 - t_2_4 - 1024.000000 u_2_2_4 - 4.250026 s_2_4 + 4.250026 s_2_7 + 2048.000000 r_2_2_4 > -1019.976803
s_1_2 + s_1_5 + 1024 r_1_2_5 >= 2
- s_1_2 - s_1_5 - 1024 r_1_2_5 >= -1025
t_1_2 - t_1_5 - 1024.000000 u_1_2_5 - 5.963351 s_1_5 + 5.963351 s_1_8 + 2048.000000 r_1_2_5 > -1015.183422
s_2_2 + s_2_5 + 1024 r_2_2_5 >= 2
- s_2_2 - s_2_5 - 1024 r_2_2_5 >= -1025
t_2_2 - t_2_5 - 1024.000000 u_2_2_5 - 6.375039 s_2_5 + 6.375039 s_2_8 + 2048.000000 r_2_2_5 > -1017.183561
t_1_6 - t_1_2 - 22.597231 s_1_2 + 3.975568 s_1_7 > 0.0
t_1_6 - t_2_2 - 18.301145 s_2_2 + 4.250026 s_2_7 > 0.0
t_2_6 - t_1_2 - 22.597231 s_1_2 + 3.975568 s_1_7 > 0.0
t_2_6 - t_2_2 - 18.301145 s_2_2 + 4.250026 s_2_7 > 0.0
t_1_2 - t_1_7 - 1024.000000 s_1_7 > -997.923764
t_1_2 - t_2_7 - 1024.000000 s_2_7 > -1012.478389
t_2_2 - t_1_7 - 1024.000000 s_1_7 > -997.923764
t_2_2 - t_2_7 - 1024.000000 s_2_7 > -1012.478389
s_1_2 + s_1_8 + 1024 r_1_2_8 >= 2
- s_1_2 - s_1_8 - 1024 r_1_2_8 >= -1025
t_1_2 - t_1_8 - 1024.000000 u_1_2_8 + 2048.000000 r_1_2_8 > -998.218889
s_2_2 + s_2_8 + 1024 r_2_2_8 >= 2
- s_2_2 - s_2_8 - 1024 r_2_2_8 >= -1025
t_2_2 - t_2_8 - 1024.000000 u_2_2_8 + 2048.000000 r_2_2_8 > -1012.974700
s_1_3 + s_1_1 + 1024 r_1_1_3 >= 2
- s_1_3 - s_1_1 - 1024 r_1_1_3 >= -1025
t_1_3 - t_1_1 + 1024.000000 u_1_1_3 - 3.975568 s_1_1 + 3.975568 s_1_8 + 2048.000000 r_1_1_3 > 18.540078
s_2_3 + s_2_1 + 1024 r_2_1_3 >= 2
- s_2_3 - s_2_1 - 1024 r_2_1_3 >= -1025
t_2_3 - t_2_1 + 1024.000000 u_2_1_3 - 4.250026 s_2_1 + 4.250026 s_2_8 + 2048.000000 r_2_1_3 > 15.645264
s_1_3 + s_1_2 + 1024 r_1_2_3 >= 2
- s_1_3 - s_1_2 - 1024 r_1_2_3 >= -1025
t_1_3 - t_1_2 + 1024.000000 u_1_2_3 - 3.975568 s_1_2 + 3.975568 s_1_7 + 2048.000000 r_1_2_3 > 18.621664
s_2_3 + s_2_2 + 1024 r_2_2_3 >= 2
- s_2_3 - s_2_2 - 1024 r_2_2_3 >= -1025
t_2_3 - t_2_2 + 1024.000000 u_2_2_3 - 4.250026 s_2_2 + 4.250026 s_2_7 + 2048.000000 r_2_2_3 > 14.051119
s_1_3 + s_1_4 + 1024 r_1_3_4 >= 2
- s_1_3 - s_1_4 - 1024 r_1_3_4 >= -1025
t_1_3 - t_1_4 - 1024.000000 u_1_3_4 - 3.975568 s_1_4 + 3.975568 s_1_7 + 2048.000000 r_1_3_4 > -1021.176143
s_2_3 + s_2_4 + 1024 r_2_3_4 >= 2
- s_2_3 - s_2_4 - 1024 r_2_3_4 >= -1025
t_2_3 - t_2_4 - 1024.000000 u_2_3_4 - 4.250026 s_2_4 + 4.250026 s_2_7 + 2048.000000 r_2_3_4 > -1019.976803
s_1_3 + s_1_5 + 1024 r_1_3_5 >= 2
- s_1_3 - s_1_5 - 1024 r_1_3_5 >= -1025
t_1_3 - t_1_5 - 1024.000000 u_1_3_5 - 5.963351 s_1_5 + 5.963351 s_1_8 + 2048.000000 r_1_3_5 > -1015.183422
s_2_3 + s_2_5 + 1024 r_2_3_5 >= 2
- s_2_3 - s_2_5 - 1024 r_2_3_5 >= -1025
t_2_3 - t_2_5 - 1024.000000 u_2_3_5 - 6.375039 s_2_5 + 6.375039 s_2_8 + 2048.000000 r_2_3_5 > -1017.183561
t_1_6 - t_1_3 - 7.690847 s_1_3 + 5.963351 s_1_8 > 0.0
t_1_6 - t_2_3 - 8.991617 s_2_3 + 6.375039 s_2_8 > 0.0
t_2_6 - t_1_3 - 7.690847 s_1_3 + 5.963351 s_1_8 > 0.0
t_2_6 - t_2_3 - 8.991617 s_2_3 + 6.375039 s_2_8 > 0.0
t_1_3 - t_1_7 - 1024.000000 s_1_7 > -997.923764
t_1_3 - t_2_7 - 1024.000000 s_2_7 > -1012.478389
t_2_3 - t_1_7 - 1024.000000 s_1_7 > -997.923764
t_2_3 - t_2_7 - 1024.000000 s_2_7 > -1012.478389
t_1_3 - t_1_8 - 1024.000000 s_1_8 > -998.218889
t_1_3 - t_2_8 - 1024.000000 s_2_8 > -1012.974700
t_2_3 - t_1_8 - 1024.000000 s_1_8 > -998.218889
t_2_3 - t_2_8 - 1024.000000 s_2_8 > -1012.974700
s_1_4 + s_1_1 + 1024 r_1_1_4 >= 2
- s_1_4 - s_1_1 - 1024 r_1_1_4 >= -1025
t_1_4 - t_1_1 + 1024.000000 u_1_1_4 - 3.975568 s_1_1 + 3.975568 s_1_8 + 2048.000000 r_1_1_4 > 18.540078
s_2_4 + s_2_1 + 1024 r_2_1_4 >= 2
- s_2_4 - s_2_1 - 1024 r_2_1_4 >= -1025
t_2_4 - t_2_1 + 1024.000000 u_2_1_4 - 4.250026 s_2_1 + 4.250026 s_2_8 + 2048.000000 r_2_1_4 > 15.645264
s_1_4 + s_1_2 + 1024 r_1_2_4 >= 2
- s_1_4 - s_1_2 - 1024 r_1_2_4 >= -1025
t_1_4 - t_1_2 + 1024.000000 u_1_2_4 - 3.975568 s_1_2 + 3.975568 s_1_7 + 2048.000000 r_1_2_4 > 18.621664
s_2_4 + s_2_2 + 1024 r_2_2_4 >= 2
- s_2_4 - s_2_2 - 1024 r_2_2_4 >= -1025
t_2_4 - t_2_2 + 1024.000000 u_2_2_4 - 4.250026 s_2_2 + 4.250026 s_2_7 + 2048.000000 r_2_2_4 > 14.051119
s_1_4 + s_1_3 + 1024 r_1_3_4 >= 2
- s_1_4 - s_1_3 - 1024 r_1_3_4 >= -1025
t_1_4 - t_1_3 + 1024.000000 u_1_3_4 - 5.963351 s_1_3 + 5.963351 s_1_8 + 2048.000000 r_1_3_4 > 1.727495
s_2_4 + s_2_3 + 1024 r_2_3_4 >= 2
- s_2_4 - s_2_3 - 1024 r_2_3_4 >= -1025
t_2_4 - t_2_3 + 1024.000000 u_2_3_4 - 6.375039 s_2_3 + 6.375039 s_2_8 + 2048.000000 r_2_3_4 > 2.616578
s_1_4 + s_1_5 + 1024 r_1_4_5 >= 2
- s_1_4 - s_1_5 - 1024 r_1_4_5 >= -1025
t_1_4 - t_1_5 - 1024.000000 u_1_4_5 - 5.963351 s_1_5 + 5.963351 s_1_8 + 2048.000000 r_1_4_5 > -1015.183422
s_2_4 + s_2_5 + 1024 r_2_4_5 >= 2
- s_2_4 - s_2_5 - 1024 r_2_4_5 >= -1025
t_2_4 - t_2_5 - 1024.000000 u_2_4_5 - 6.375039 s_2_5 + 6.375039 s_2_8 + 2048.000000 r_2_4_5 > -1017.183561
t_1_6 - t_1_4 - 6.799425 s_1_4 + 3.975568 s_1_7 > 0.0
t_1_6 - t_2_4 - 8.273223 s_2_4 + 4.250026 s_2_7 > 0.0
t_2_6 - t_1_4 - 6.799425 s_1_4 + 3.975568 s_1_7 > 0.0
t_2_6 - t_2_4 - 8.273223 s_2_4 + 4.250026 s_2_7 > 0.0
t_1_4 - t_1_7 - 1024.000000 s_1_7 > -997.923764
t_1_4 - t_2_7 - 1024.000000 s_2_7 > -1012.478389
t_2_4 - t_1_7 - 1024.000000 s_1_7 > -997.923764
t_2_4 - t_2_7 - 1024.000000 s_2_7 > -1012.478389
s_1_4 + s_1_8 + 1024 r_1_4_8 >= 2
- s_1_4 - s_1_8 - 1024 r_1_4_8 >= -1025
t_1_4 - t_1_8 - 1024.000000 u_1_4_8 + 2048.000000 r_1_4_8 > -998.218889
s_2_4 + s_2_8 + 1024 r_2_4_8 >= 2
- s_2_4 - s_2_8 - 1024 r_2_4_8 >= -1025
t_2_4 - t_2_8 - 1024.000000 u_2_4_8 + 2048.000000 r_2_4_8 > -1012.974700
s_1_5 + s_1_1 + 1024 r_1_1_5 >= 2
- s_1_5 - s_1_1 - 1024 r_1_1_5 >= -1025
t_1_5 - t_1_1 + 1024.000000 u_1_1_5 - 3.975568 s_1_1 + 3.975568 s_1_8 + 2048.000000 r_1_1_5 > 18.540078
s_2_5 + s_2_1 + 1024 r_2_1_5 >= 2
- s_2_5 - s_2_1 - 1024 r_2_1_5 >= -1025
t_2_5 - t_2_1 + 1024.000000 u_2_1_5 - 4.250026 s_2_1 + 4.250026 s_2_8 + 2048.000000 r_2_1_5 > 15.645264
s_1_5 + s_1_2 + 1024 r_1_2_5 >= 2
- s_1_5 - s_1_2 - 1024 r_1_2_5 >= -1025
t_1_5 - t_1_2 + 1024.000000 u_1_2_5 - 3.975568 s_1_2 + 3.975568 s_1_7 + 2048.000000 r_1_2_5 > 18.621664
s_2_5 + s_2_2 + 1024 r_2_2_5 >= 2
- s_2_5 - s_2_2 - 1024 r_2_2_5 >= -1025
t_2_5 - t_2_2 + 1024.000000 u_2_2_5 - 4.250026 s_2_2 + 4.250026 s_2_7 + 2048.000000 r_2_2_5 > 14.051119
s_1_5 + s_1_3 + 1024 r_1_3_5 >= 2
- s_1_5 - s_1_3 - 1024 r_1_3_5 >= -1025
t_1_5 - t_1_3 + 1024.000000 u_1_3_5 - 5.963351 s_1_3 + 5.963351 s_1_8 + 2048.000000 r_1_3_5 > 1.727495
s_2_5 + s_2_3 + 1024 r_2_3_5 >= 2
- s_2_5 - s_2_3 - 1024 r_2_3_5 >= -1025
t_2_5 - t_2_3 + 1024.000000 u_2_3_5 - 6.375039 s_2_3 + 6.375039 s_2_8 + 2048.000000 r_2_3_5 > 2.616578
s_1_5 + s_1_4 + 1024 r_1_4_5 >= 2
- s_1_5 - s_1_4 - 1024 r_1_4_5 >= -1025
t_1_5 - t_1_4 + 1024.000000 u_1_4_5 - 3.975568 s_1_4 + 3.975568 s_1_7 + 2048.000000 r_1_4_5 > 2.823857
s_2_5 + s_2_4 + 1024 r_2_4_5 >= 2
- s_2_5 - s_2_4 - 1024 r_2_4_5 >= -1025
t_2_5 - t_2_4 + 1024.000000 u_2_4_5 - 4.250026 s_2_4 + 4.250026 s_2_7 + 2048.000000 r_2_4_5 > 4.023197
t_1_6 - t_1_5 - 14.779929 s_1_5 + 5.963351 s_1_8 > 0.0
t_1_6 - t_2_5 - 13.191478 s_2_5 + 6.375039 s_2_8 > 0.0
t_2_6 - t_1_5 - 14.779929 s_1_5 + 5.963351 s_1_8 > 0.0
t_2_6 - t_2_5 - 13.191478 s_2_5 + 6.375039 s_2_8 > 0.0
s_1_5 + s_1_7 + 1024 r_1_5_7 >= 2
- s_1_5 - s_1_7 - 1024 r_1_5_7 >= -1025
t_1_5 - t_1_7 - 1024.000000 u_1_5_7 + 2048.000000 r_1_5_7 > -997.923764
s_2_5 + s_2_7 + 1024 r_2_5_7 >= 2
- s_2_5 - s_2_7 - 1024 r_2_5_7 >= -1025
t_2_5 - t_2_7 - 1024.000000 u_2_5_7 + 2048.000000 r_2_5_7 > -1012.478389
t_1_5 - t_1_8 - 1024.000000 s_1_8 > -998.218889
t_1_5 - t_2_8 - 1024.000000 s_2_8 > -1012.974700
t_2_5 - t_1_8 - 1024.000000 s_1_8 > -998.218889
t_2_5 - t_2_8 - 1024.000000 s_2_8 > -1012.974700
t_1_6 - t_1_7 - 1024.000000 s_1_7 > -997.923764
t_1_6 - t_2_7 - 1024.000000 s_2_7 > -1012.478389
t_2_6 - t_1_7 - 1024.000000 s_1_7 > -997.923764
t_2_6 - t_2_7 - 1024.000000 s_2_7 > -1012.478389
s_1_7 + s_1_5 + 1024 r_1_5_7 >= 2
- s_1_7 - s_1_5 - 1024 r_1_5_7 >= -1025
t_1_7 - t_1_5 + 1024.000000 u_1_5_7 - 5.963351 s_1_5 + 5.963351 s_1_8 + 2048.000000 r_1_5_7 > 8.816578
s_2_7 + s_2_5 + 1024 r_2_5_7 >= 2
- s_2_7 - s_2_5 - 1024 r_2_5_7 >= -1025
t_2_7 - t_2_5 + 1024.000000 u_2_5_7 - 6.375039 s_2_5 + 6.375039 s_2_8 + 2048.000000 r_2_5_7 > 6.816439
s_1_7 + s_1_8 + 1024 r_1_7_8 >= 2
- s_1_7 - s_1_8 - 1024 r_1_7_8 >= -1025
t_1_7 - t_1_8 - 1024.000000 u_1_7_8 + 2048.000000 r_1_7_8 > -998.218889
s_2_7 + s_2_8 + 1024 r_2_7_8 >= 2
- s_2_7 - s_2_8 - 1024 r_2_7_8 >= -1025
t_2_7 - t_2_8 - 1024.000000 u_2_7_8 + 2048.000000 r_2_7_8 > -1012.974700
s_1_8 + s_1_2 + 1024 r_1_2_8 >= 2
- s_1_8 - s_1_2 - 1024 r_1_2_8 >= -1025
t_1_8 - t_1_2 + 1024.000000 u_1_2_8 - 3.975568 s_1_2 + 3.975568 s_1_7 + 2048.000000 r_1_2_8 > 18.621664
s_2_8 + s_2_2 + 1024 r_2_2_8 >= 2
- s_2_8 - s_2_2 - 1024 r_2_2_8 >= -1025
t_2_8 - t_2_2 + 1024.000000 u_2_2_8 - 4.250026 s_2_2 + 4.250026 s_2_7 + 2048.000000 r_2_2_8 > 14.051119
s_1_8 + s_1_4 + 1024 r_1_4_8 >= 2
- s_1_8 - s_1_4 - 1024 r_1_4_8 >= -1025
t_1_8 - t_1_4 + 1024.000000 u_1_4_8 - 3.975568 s_1_4 + 3.975568 s_1_7 + 2048.000000 r_1_4_8 > 2.823857
s_2_8 + s_2_4 + 1024 r_2_4_8 >= 2
- s_2_8 - s_2_4 - 1024 r_2_4_8 >= -1025
t_2_8 - t_2_4 + 1024.000000 u_2_4_8 - 4.250026 s_2_4 + 4.250026 s_2_7 + 2048.000000 r_2_4_8 > 4.023197
s_1_8 + s_1_7 + 1024 r_1_7_8 >= 2
- s_1_8 - s_1_7 - 1024 r_1_7_8 >= -1025
t_1_8 - t_1_7 + 1024.000000 u_1_7_8 + 2048.000000 r_1_7_8 > 26.076236
s_2_8 + s_2_7 + 1024 r_2_7_8 >= 2
- s_2_8 - s_2_7 - 1024 r_2_7_8 >= -1025
t_2_8 - t_2_7 + 1024.000000 u_2_7_8 + 2048.000000 r_2_7_8 > 11.521611
Binary
s_1_1
s_2_1
s_1_2
s_2_2
s_1_3
s_2_3
s_1_4
s_2_4
s_1_5
s_2_5
s_1_6
s_2_6
s_1_7
s_2_7
s_1_8
s_2_8
u_1_1_2
r_1_1_2
u_2_1_2
r_2_1_2
u_1_1_3
r_1_1_3
u_2_1_3
r_2_1_3
u_1_1_4
r_1_1_4
u_2_1_4
r_2_1_4
u_1_1_5
r_1_1_5
u_2_1_5
r_2_1_5
u_1_2_3
r_1_2_3
u_2_2_3
r_2_2_3
u_1_2_4
r_1_2_4
u_2_2_4
r_2_2_4
u_1_2_5
r_1_2_5
u_2_2_5
r_2_2_5
u_1_2_8
r_1_2_8
u_2_2_8
r_2_2_8
u_1_3_4
r_1_3_4
u_2_3_4
r_2_3_4
u_1_3_5
r_1_3_5
u_2_3_5
r_2_3_5
u_1_4_5
r_1_4_5
u_2_4_5
r_2_4_5
u_1_4_8
r_1_4_8
u_2_4_8
r_2_4_8
u_1_5_7
r_1_5_7
u_2_5_7
r_2_5_7
u_1_7_8
r_1_7_8
u_2_7_8
r_2_7_8

End
